20190930 791600.00 791600.00
20190705 791407.88 791365.09
20171231 790400.00 190000.00
20170630 790409.27 189964.99
20161231 790409.27 189942.94
20160630 790409.27 176595.06
20160114 790409.27 189944.60
